     Program PWSCF v.6.2 starts on 30Apr2025 at 12: 3:45

     Current dimensions of program PWSCF are:
     Max number of different atomic species (ntypx) = 10
     Max number of k-points (npk) =  40000
     Max angular momentum in pseudopotentials (lmaxx) =  3
               file Ga.pbe-dn-kjpaw_psl.1.0.0.UPF: wavefunction(s)  4S renormalized
               file N.pbe-n-kjpaw_psl.1.0.0.UPF: wavefunction(s)  2S renormalized

     bravais-lattice index     =            4
     lattice parameter (alat)  =       6.0000  a.u.
     unit-cell volume          =     304.1620 (a.u.)^3
     number of atoms/cell      =            4
     number of atomic types    =            2
     number of electrons       =        36.00
     number of Kohn-Sham states=           22
     kinetic-energy cutoff     =      50.0000  Ry
     charge density cutoff     =     200.0000  Ry
     convergence threshold     =      1.0E-08
     mixing beta               =       0.7000
     number of iterations used =            8  plain     mixing
     Exchange-correlation      = SLA PW PBX PBC ( 1  4  3  4 0 0)

     celldm(1)=   6.000000  celldm(2)=   0.000000  celldm(3)=   1.626000
     celldm(4)=   0.000000  celldm(5)=   0.000000  celldm(6)=   0.000000

     crystal axes: (cart. coord. in units of alat)
               a(1) = (   1.000000   0.000000   0.000000 )
               a(2) = (  -0.500000   0.866025   0.000000 )
               a(3) = (   0.000000   0.000000   1.626000 )

     reciprocal axes: (cart. coord. in units 2 pi/alat)
               b(1) = (  1.000000  0.577350 -0.000000 )
               b(2) = (  0.000000  1.154701  0.000000 )
               b(3) = (  0.000000 -0.000000  0.615006 )

     PseudoPot. # 1 for Ga read from file:
     ./pseudo/Ga.pbe-dn-kjpaw_psl.1.0.0.UPF
     MD5 check sum: 50ce49cbf7e0a40ad8623bf41840a268
     Pseudo is Projector augmented-wave + core cor, Zval = 13.0
     Generated using "atomic" code by A. Dal Corso v.6.3
     Shape of augmentation charge: PSQ
     Using radial grid of 1205 points,  6 beta functions with:
                l(1) =   0
                l(2) =   0
                l(3) =   1
                l(4) =   1
                l(5) =   2
                l(6) =   2
     Q(r) pseudized with 0 coefficients

     PseudoPot. # 2 for N  read from file:
     ./pseudo/N.pbe-n-kjpaw_psl.1.0.0.UPF
     MD5 check sum: a6186d50559fdcbe4b2d0187dd61a119
     Pseudo is Projector augmented-wave + core cor, Zval =  5.0
     Generated using "atomic" code by A. Dal Corso v.6.3
     Shape of augmentation charge: PSQ
     Using radial grid of 1085 points,  4 beta functions with:
                l(1) =   0
                l(2) =   0
                l(3) =   1
                l(4) =   1
     Q(r) pseudized with 0 coefficients

     atomic species   valence    mass     pseudopotential
        Ga            13.00    69.72300     Ga( 1.00)
        N              5.00    14.00700     N ( 1.00)

      6 Sym. Ops. (no inversion) found
          (note:  6 additional sym.ops. were found but ignored
           their fractional translations are incommensurate with FFT grid)

                                    s                        frac. trans.

      isym =  1     identity

 cryst.   s( 1) = (     1          0          0      )
                  (     0          1          0      )
                  (     0          0          1      )

 cart.    s( 1) = (  1.0000000  0.0000000  0.0000000 )
                  (  0.0000000  1.0000000  0.0000000 )
                  (  0.0000000  0.0000000  1.0000000 )

      isym =  2     120 deg rotation - cryst. axis [0,0,1]

[...]

      isym =  3     120 deg rotation - cryst. axis [0,0,-1]

[...]

      isym =  4     inv. 180 deg rotation - cart. axis [1,0,0]

[...]

      isym =  5     inv. 180 deg rotation - cryst. axis [0,1,0]

[...]

      isym =  6     inv. 180 deg rotation - cryst. axis [1,1,0]

 cryst.   s( 6) = (     0         -1          0      )
                  (    -1          0          0      )
                  (     0          0          1      )

 cart.    s( 6) = (  0.5000000 -0.8660254  0.0000000 )
                  ( -0.8660254 -0.5000000  0.0000000 )
                  (  0.0000000  0.0000000  1.0000000 )

     point group C_3v (3m)
     there are  3 classes
     the character table:

       E     2C3   3s_v
A_1    1.00  1.00  1.00
A_2    1.00  1.00 -1.00
E      2.00 -1.00  0.00

     the symmetry operations in each class and the name of the first element:

     E        1
          identity
     2C3      2    3
          120 deg rotation - cryst. axis [0,0,1]
     3s_v     4    5    6
          inv. 180 deg rotation - cart. axis [1,0,0]

   Cartesian axes

     site n.     atom                  positions (alat units)
         1           Ga  tau(   1) = (   0.0000000   0.0000000   0.0000000  )
         2           Ga  tau(   2) = (  -0.0000005   0.5773506   0.8130000  )
         3           N   tau(   3) = (   0.0000000   0.0000000   0.6097500  )
         4           N   tau(   4) = (  -0.0000005   0.5773506   1.4227500  )

   Crystallographic axes

     site n.     atom                  positions (cryst. coord.)
         1           Ga  tau(   1) = (  0.0000000  0.0000000  0.0000000  )
         2           Ga  tau(   2) = (  0.3333330  0.6666670  0.5000000  )
         3           N   tau(   3) = (  0.0000000  0.0000000  0.3750000  )
         4           N   tau(   4) = (  0.3333330  0.6666670  0.8750000  )

     number of k points=    50  gaussian smearing, width (Ry)=  0.0100
                       cart. coord. in units 2pi/alat
        k(    1) = (   0.0000000   0.0000000   0.0000000), wk =   0.0052083
        k(    2) = (   0.0000000   0.0000000   0.1025010), wk =   0.0104167
        k(    3) = (   0.0000000   0.0000000   0.2050021), wk =   0.0104167
        k(    4) = (   0.0000000   0.0000000  -0.3075031), wk =   0.0052083
        k(    5) = (   0.0000000   0.1443376   0.0000000), wk =   0.0312500
        k(    6) = (   0.0000000   0.1443376   0.1025010), wk =   0.0312500
        k(    7) = (   0.0000000   0.1443376   0.2050021), wk =   0.0312500
        k(    8) = (   0.0000000   0.1443376  -0.3075031), wk =   0.0312500
        k(    9) = (   0.0000000   0.2886751   0.0000000), wk =   0.0312500
        k(   10) = (   0.0000000   0.2886751   0.1025010), wk =   0.0312500
        k(   11) = (   0.0000000   0.2886751   0.2050021), wk =   0.0312500
        k(   12) = (   0.0000000   0.2886751  -0.3075031), wk =   0.0312500
        k(   13) = (   0.0000000   0.4330127   0.0000000), wk =   0.0312500
        k(   14) = (   0.0000000   0.4330127   0.1025010), wk =   0.0312500
        k(   15) = (   0.0000000   0.4330127   0.2050021), wk =   0.0312500
        k(   16) = (   0.0000000   0.4330127  -0.3075031), wk =   0.0312500
        k(   17) = (   0.0000000  -0.5773503   0.0000000), wk =   0.0156250
        k(   18) = (   0.0000000  -0.5773503   0.1025010), wk =   0.0312500
        k(   19) = (   0.0000000  -0.5773503   0.2050021), wk =   0.0312500
        k(   20) = (   0.0000000  -0.5773503  -0.3075031), wk =   0.0156250
        k(   21) = (   0.1250000   0.2165064   0.0000000), wk =   0.0312500
        k(   22) = (   0.1250000   0.2165064   0.1025010), wk =   0.0625000
        k(   23) = (   0.1250000   0.2165064   0.2050021), wk =   0.0625000
        k(   24) = (   0.1250000   0.2165064  -0.3075031), wk =   0.0312500
        k(   25) = (   0.1250000   0.3608439   0.0000000), wk =   0.0625000
        k(   26) = (   0.1250000   0.3608439   0.1025010), wk =   0.0625000
        k(   27) = (   0.1250000   0.3608439   0.2050021), wk =   0.0625000
        k(   28) = (   0.1250000   0.3608439  -0.3075031), wk =   0.0625000
        k(   29) = (   0.1250000   0.5051815   0.0000000), wk =   0.0625000
        k(   30) = (   0.1250000   0.5051815   0.1025010), wk =   0.0625000
        k(   31) = (   0.1250000   0.5051815   0.2050021), wk =   0.0625000
        k(   32) = (   0.1250000   0.5051815  -0.3075031), wk =   0.0625000
        k(   33) = (   0.2500000   0.4330127   0.0000000), wk =   0.0312500
        k(   34) = (   0.2500000   0.4330127   0.1025010), wk =   0.0625000
        k(   35) = (   0.2500000   0.4330127   0.2050021), wk =   0.0625000
        k(   36) = (   0.2500000   0.4330127  -0.3075031), wk =   0.0312500
        k(   37) = (   0.2500000   0.5773503   0.0000000), wk =   0.0312500
        k(   38) = (   0.2500000   0.5773503   0.1025010), wk =   0.0625000
        k(   39) = (   0.2500000   0.5773503   0.2050021), wk =   0.0625000
        k(   40) = (   0.2500000   0.5773503  -0.3075031), wk =   0.0312500
        k(   41) = (   0.0000000  -0.1443376   0.1025010), wk =   0.0312500
        k(   42) = (   0.0000000  -0.1443376   0.2050021), wk =   0.0312500
        k(   43) = (   0.0000000  -0.2886751   0.1025010), wk =   0.0312500
        k(   44) = (   0.0000000  -0.2886751   0.2050021), wk =   0.0312500
        k(   45) = (   0.0000000  -0.4330127   0.1025010), wk =   0.0312500
        k(   46) = (   0.0000000  -0.4330127   0.2050021), wk =   0.0312500
        k(   47) = (   0.1250000  -0.3608439   0.1025010), wk =   0.0625000
        k(   48) = (   0.1250000  -0.3608439   0.2050021), wk =   0.0625000
        k(   49) = (   0.1250000  -0.5051815   0.1025010), wk =   0.0625000
        k(   50) = (   0.1250000  -0.5051815   0.2050021), wk =   0.0625000

                       cryst. coord.
        k(    1) = (   0.0000000   0.0000000   0.0000000), wk =   0.0052083
        k(    2) = (   0.0000000   0.0000000   0.1666667), wk =   0.0104167
        k(    3) = (   0.0000000   0.0000000   0.3333333), wk =   0.0104167
        k(    4) = (   0.0000000   0.0000000  -0.5000000), wk =   0.0052083
        k(    5) = (   0.0000000   0.1250000   0.0000000), wk =   0.0312500
        k(    6) = (   0.0000000   0.1250000   0.1666667), wk =   0.0312500
        k(    7) = (   0.0000000   0.1250000   0.3333333), wk =   0.0312500
        k(    8) = (   0.0000000   0.1250000  -0.5000000), wk =   0.0312500
        k(    9) = (   0.0000000   0.2500000   0.0000000), wk =   0.0312500
        k(   10) = (   0.0000000   0.2500000   0.1666667), wk =   0.0312500
        k(   11) = (   0.0000000   0.2500000   0.3333333), wk =   0.0312500
        k(   12) = (   0.0000000   0.2500000  -0.5000000), wk =   0.0312500
        k(   13) = (   0.0000000   0.3750000   0.0000000), wk =   0.0312500
        k(   14) = (   0.0000000   0.3750000   0.1666667), wk =   0.0312500
        k(   15) = (   0.0000000   0.3750000   0.3333333), wk =   0.0312500
        k(   16) = (   0.0000000   0.3750000  -0.5000000), wk =   0.0312500
        k(   17) = (   0.0000000  -0.5000000   0.0000000), wk =   0.0156250
        k(   18) = (   0.0000000  -0.5000000   0.1666667), wk =   0.0312500
        k(   19) = (   0.0000000  -0.5000000   0.3333333), wk =   0.0312500
        k(   20) = (   0.0000000  -0.5000000  -0.5000000), wk =   0.0156250
        k(   21) = (   0.1250000   0.1250000   0.0000000), wk =   0.0312500
        k(   22) = (   0.1250000   0.1250000   0.1666667), wk =   0.0625000
        k(   23) = (   0.1250000   0.1250000   0.3333333), wk =   0.0625000
        k(   24) = (   0.1250000   0.1250000  -0.5000000), wk =   0.0312500
        k(   25) = (   0.1250000   0.2500000   0.0000000), wk =   0.0625000
        k(   26) = (   0.1250000   0.2500000   0.1666667), wk =   0.0625000
        k(   27) = (   0.1250000   0.2500000   0.3333333), wk =   0.0625000
        k(   28) = (   0.1250000   0.2500000  -0.5000000), wk =   0.0625000
        k(   29) = (   0.1250000   0.3750000   0.0000000), wk =   0.0625000
        k(   30) = (   0.1250000   0.3750000   0.1666667), wk =   0.0625000
        k(   31) = (   0.1250000   0.3750000   0.3333333), wk =   0.0625000
        k(   32) = (   0.1250000   0.3750000  -0.5000000), wk =   0.0625000
        k(   33) = (   0.2500000   0.2500000   0.0000000), wk =   0.0312500
        k(   34) = (   0.2500000   0.2500000   0.1666667), wk =   0.0625000
        k(   35) = (   0.2500000   0.2500000   0.3333333), wk =   0.0625000
        k(   36) = (   0.2500000   0.2500000  -0.5000000), wk =   0.0312500
        k(   37) = (   0.2500000   0.3750000   0.0000000), wk =   0.0312500
        k(   38) = (   0.2500000   0.3750000   0.1666667), wk =   0.0625000
        k(   39) = (   0.2500000   0.3750000   0.3333333), wk =   0.0625000
        k(   40) = (   0.2500000   0.3750000  -0.5000000), wk =   0.0312500
        k(   41) = (   0.0000000  -0.1250000   0.1666667), wk =   0.0312500
        k(   42) = (   0.0000000  -0.1250000   0.3333333), wk =   0.0312500
        k(   43) = (   0.0000000  -0.2500000   0.1666667), wk =   0.0312500
        k(   44) = (   0.0000000  -0.2500000   0.3333333), wk =   0.0312500
        k(   45) = (   0.0000000  -0.3750000   0.1666667), wk =   0.0312500
        k(   46) = (   0.0000000  -0.3750000   0.3333333), wk =   0.0312500
        k(   47) = (   0.1250000  -0.3750000   0.1666667), wk =   0.0625000
        k(   48) = (   0.1250000  -0.3750000   0.3333333), wk =   0.0625000
        k(   49) = (   0.1250000  -0.5000000   0.1666667), wk =   0.0625000
        k(   50) = (   0.1250000  -0.5000000   0.3333333), wk =   0.0625000

     Check: negative/imaginary core charge=   -0.000022    0.000000

     Initial potential from superposition of free atoms

     starting charge   35.99408, renormalised to   36.00000
     Starting wfc are   26 randomized atomic wfcs

     Self-consistent Calculation

     iteration #  1     ecut=    50.00 Ry     beta= 0.70
     Davidson diagonalization with overlap
     ethr =  1.00E-02,  avg # of iterations =  3.8

     total energy              =    -611.66530838 Ry
     Harris-Foulkes estimate   =    -612.50924097 Ry
     estimated scf accuracy    <       1.13192548 Ry

[...]

     total energy              =    -612.41810163 Ry
     Harris-Foulkes estimate   =    -612.41810166 Ry
     estimated scf accuracy    <       0.00000013 Ry

     iteration # 23     ecut=    50.00 Ry     beta= 0.70
     Davidson diagonalization with overlap
     ethr =  3.67E-10,  avg # of iterations =  3.0

     End of self-consistent calculation

          k = 0.0000 0.0000 0.0000 (  1809 PWs)   bands (ev):

    -6.1731  -5.2146  -3.5602  -3.5387  -3.5387  -3.4741  -3.4741  -3.2800
    -3.2800  -3.1769  -3.1769  -1.9259   2.7562   8.8822   8.8823   9.8918
     9.9562   9.9563  11.9482  14.2889  19.2342  19.9096

     occupation numbers
     1.0000   1.0000   1.0000   1.0000   1.0000   1.0000   1.0000   1.0000
     1.0000   1.0000   1.0000   1.0000   1.0000   1.0000   1.0000   1.0000
     1.0000   1.0000   0.0000   0.0000   0.0000   0.0000

[...]

          k = 0.1250-0.5052 0.2050 (  1815 PWs)   bands (ev):

    -5.1419  -5.0530  -3.4838  -3.4391  -3.4223  -3.3271  -3.2943  -3.2430
    -3.1994  -3.1890  -2.0172  -1.6019   3.3829   3.9984   6.6019   7.4126
     7.7477   8.4976  14.7634  15.8067  17.5959  18.1768

     occupation numbers
     1.0000   1.0000   1.0000   1.0000   1.0000   1.0000   1.0000   1.0000
     1.0000   1.0000   1.0000   1.0000   1.0000   1.0000   1.0000   1.0000
     1.0000   1.0000   0.0000   0.0000   0.0000   0.0000

     the Fermi energy is    11.0507 ev

!    total energy              =    -612.41810166 Ry
     Harris-Foulkes estimate   =    -612.41810166 Ry
     estimated scf accuracy    <          2.3E-09 Ry

     total all-electron energy =     -7995.345020 Ry

     The total energy is the sum of the following terms:

     one-electron contribution =    -179.28927333 Ry
     hartree contribution      =     129.58084176 Ry
     xc contribution           =     -88.51941669 Ry
     ewald contribution        =    -234.30214793 Ry
     one-center paw contrib.   =    -239.88810548 Ry
      -> PAW hartree energy AE =     325.39224715 Ry
      -> PAW hartree energy PS =    -323.40782217 Ry
      -> PAW xc energy AE      =    -329.21976136 Ry
      -> PAW xc energy PS      =      87.34723091 Ry
      -> total E_H with PAW    =     131.56526674 Ry
      -> total E_XC with PAW   =    -330.39194714 Ry
     smearing contrib. (-TS)   =      -0.00000000 Ry

     convergence has been achieved in  23 iterations

     Writing output data file gan.save

     General routines

     PAW routines

   This run was terminated on:  12: 7:14  30Apr2025

   JOB DONE.